c Output_time 26.03.2020 18:15:39_+0100 1585242939300001153
c ** Program information **
c program_name                          "QBRG_debug"
c version                               "0.3.20"
c date                                  "25.3.2020"
c gid_id                                "673970833836058123f633335630c185360d632e"
c author                                "Oliver Kullmann"
c url                                   "https://github.com/OKullmann/oklibrary/blob/master/Satisfiability/Transformers/Generators/Random/QBRG.cpp"
c ** Machine information **
c machine_name                          "chyna-Lenovo-G50-70"
c bogomips                              3791.08
c ** Compilation information **
c compiler_version                      "g++ 7.5.0"
c compilation_date                      "Mar_26_2020 11:16:30"
c compilation_options                   "--std=c++17 -pedantic -fmax-errors=5 -Wall -Wextra -g -D_GLIBCXX_DEBUG"
c NDEBUG                                0
c OPTIMIZE                              0
c ** Parameters **
c command-line                          "./QBRG_debug" "a40 e40 a40 40" "698*1,1|2-2,1|3-3,1|4-4,1" "" "1,t" ""
c output                                "QuBlRaGe_160_698_1585242938980014195.qdimacs"
c options                               "filtered,renamed"
c num_quantifier_blocks                 4
c  quantifier_blocks                    1:a1-40 2:e41-80 3:a81-120 4:e121-160
c num_clause-blocks                     1
c  clause-blocks                        698 * {1-40,1,1/2} | {41-80,1,1/2} | {81-120,1,1/2} | {121-160,1,1/2}
c num_e-seeds                           37+2=39
c  e-seeds                              1 0 1 0 5 160 2 40 0 40 1 40 0 40 1 698 4 1 1 1 1 2 2 2 1 1 2 3 3 1 1 2 4 4 1 1 2 1 1585242938980013125
p cnf 160 698
a 1 2 3 4 5 6 7 8 9 10 11 12 13 14 15 16 17 18 19 20 21 22 23 24 25 26 27 28 29 30 31 32 33 34 35 36 37 38 39 40 0
e 41 42 43 44 45 46 47 48 49 50 51 52 53 54 55 56 57 58 59 60 61 62 63 64 65 66 67 68 69 70 71 72 73 74 75 76 77 78 79 80 0
a 81 82 83 84 85 86 87 88 89 90 91 92 93 94 95 96 97 98 99 100 101 102 103 104 105 106 107 108 109 110 111 112 113 114 115 116 117 118 119 120 0
e 121 122 123 124 125 126 127 128 129 130 131 132 133 134 135 136 137 138 139 140 141 142 143 144 145 146 147 148 149 150 151 152 153 154 155 156 157 158 159 160 0
-12 -75 -86 -121 0
-14 73 86 -121 0
-40 -72 -87 -121 0
-14 -71 -91 -121 0
36 54 -92 -121 0
-11 53 95 -121 0
-11 -46 97 -121 0
9 -74 -107 -121 0
6 -73 -113 -121 0
12 49 -115 -121 0
-16 80 87 121 0
22 56 -92 121 0
34 -77 96 121 0
7 -44 102 121 0
37 70 103 121 0
24 -69 110 121 0
6 48 88 -122 0
-40 -79 -97 -122 0
36 -43 101 -122 0
-5 -75 102 -122 0
32 -80 104 -122 0
-6 41 -107 -122 0
22 59 108 -122 0
37 -76 108 -122 0
-18 53 -113 -122 0
31 -41 113 -122 0
-5 44 113 -122 0
12 -52 -83 122 0
-38 -72 86 122 0
-36 48 89 122 0
9 -74 89 122 0
-31 -74 91 122 0
-13 -77 96 122 0
-36 75 -98 122 0
30 60 -115 122 0
29 59 -116 122 0
6 50 117 122 0
15 72 117 122 0
-23 -47 -119 122 0
10 72 81 -123 0
-36 -53 83 -123 0
-33 -46 84 -123 0
20 -67 84 -123 0
10 -51 86 -123 0
-30 -76 -89 -123 0
2 51 -94 -123 0
-34 -61 -97 -123 0
-32 -49 -99 -123 0
-6 74 -99 -123 0
-21 66 107 -123 0
-25 50 108 -123 0
31 75 -115 -123 0
24 50 82 123 0
33 63 87 123 0
24 58 -103 123 0
26 -58 -107 123 0
-32 -79 -86 -124 0
22 78 -89 -124 0
9 -42 -99 -124 0
-39 56 -109 -124 0
13 72 -109 -124 0
34 78 -111 -124 0
34 -62 -113 -124 0
-14 52 113 -124 0
-6 59 115 -124 0
-13 55 116 -124 0
7 -65 -117 -124 0
25 -50 120 -124 0
7 59 86 124 0
-9 71 -90 124 0
-1 41 92 124 0
28 -43 97 124 0
27 -73 -105 124 0
29 -53 106 124 0
31 -52 120 124 0
-23 -48 82 -125 0
35 -72 -83 -125 0
13 68 87 -125 0
39 46 94 -125 0
-1 -54 -96 -125 0
32 78 102 -125 0
-34 80 105 -125 0
11 62 109 -125 0
29 64 110 -125 0
-16 56 -113 -125 0
15 64 81 125 0
28 80 -87 125 0
34 52 -94 125 0
-8 -75 100 125 0
-16 -48 -102 125 0
-26 74 -105 125 0
-25 70 -112 125 0
28 56 112 125 0
35 65 119 125 0
19 62 85 -126 0
-16 62 -87 -126 0
3 -70 89 -126 0
-40 68 90 -126 0
-33 -44 -112 -126 0
-24 47 114 -126 0
-11 -67 -120 -126 0
39 78 -82 126 0
2 74 83 126 0
-9 -64 85 126 0
-20 56 -88 126 0
-33 -54 -91 126 0
-19 71 91 126 0
39 -77 -98 126 0
-11 47 98 126 0
-13 -63 -84 -127 0
-19 -48 -93 -127 0
37 -44 93 -127 0
15 76 -94 -127 0
-11 70 97 -127 0
19 -44 -105 -127 0
-11 47 -105 -127 0
40 -65 -112 -127 0
-33 72 112 -127 0
11 66 115 -127 0
-18 49 116 -127 0
30 -48 88 127 0
7 60 91 127 0
-31 -56 -92 127 0
-31 73 -99 127 0
-39 -46 110 127 0
-11 -50 113 127 0
11 -80 87 -128 0
-16 57 -100 -128 0
22 -46 -101 -128 0
38 -63 -105 -128 0
-9 -48 118 -128 0
-5 -72 84 128 0
1 75 -86 128 0
-13 46 102 128 0
-30 -77 102 128 0
-33 77 104 128 0
29 68 -107 128 0
22 41 -109 128 0
-7 73 109 128 0
-8 55 110 128 0
11 73 111 128 0
1 -68 -91 -129 0
-12 -71 -96 -129 0
-8 58 96 -129 0
23 -48 101 -129 0
18 -50 -103 -129 0
-23 68 -106 -129 0
-7 -52 -82 129 0
-31 -74 -84 129 0
-36 52 -85 129 0
39 53 94 129 0
39 44 -100 129 0
16 56 -101 129 0
-16 -57 -101 129 0
38 56 104 129 0
-37 48 106 129 0
-13 -80 -110 129 0
-16 52 115 129 0
1 60 -118 129 0
25 46 -81 -130 0
-7 63 84 -130 0
18 -42 -94 -130 0
-18 52 -99 -130 0
36 -63 102 -130 0
-2 71 -112 -130 0
-3 -41 118 -130 0
9 49 -120 -130 0
20 71 -82 130 0
-11 46 86 130 0
-13 66 95 130 0
-7 -46 -98 130 0
-40 -54 -100 130 0
18 -56 -102 130 0
35 -53 -120 130 0
-17 64 -86 -131 0
-12 41 -87 -131 0
20 -56 87 -131 0
-17 -53 91 -131 0
-6 41 -92 -131 0
-2 62 101 -131 0
2 45 106 -131 0
-3 -57 106 -131 0
25 66 -111 -131 0
-32 75 -111 -131 0
-29 -47 -117 -131 0
-11 53 -87 131 0
-25 59 -87 131 0
-10 50 93 131 0
39 46 94 131 0
31 -41 -115 131 0
-17 74 -117 131 0
34 -53 117 131 0
19 48 -120 131 0
-1 -71 -120 131 0
17 -65 84 -132 0
38 63 96 -132 0
24 -66 -98 -132 0
-2 -57 -103 -132 0
38 49 -108 -132 0
6 47 109 -132 0
17 -76 -113 -132 0
-8 57 83 132 0
-27 -46 84 132 0
-1 -76 84 132 0
-19 -52 89 132 0
1 -50 -100 132 0
-26 -56 102 132 0
22 44 -104 132 0
38 -70 -105 132 0
28 -59 -108 132 0
-30 46 -111 132 0
5 -46 112 132 0
15 -46 117 132 0
24 47 118 132 0
16 -60 88 -133 0
-8 -55 -89 -133 0
12 -67 90 -133 0
8 79 -96 -133 0
-36 50 -99 -133 0
5 -77 102 -133 0
-16 -42 104 -133 0
31 -45 104 -133 0
33 -69 -106 -133 0
-13 -70 -109 -133 0
23 80 -90 133 0
20 72 -97 133 0
-37 -64 99 133 0
2 69 103 133 0
23 -60 -111 133 0
-40 -48 115 133 0
-16 -64 -118 133 0
-27 60 -120 133 0
10 79 120 133 0
-28 61 86 -134 0
3 -56 87 -134 0
-2 57 -93 -134 0
33 -55 -96 -134 0
-13 66 -100 -134 0
40 -73 108 -134 0
37 -75 -109 -134 0
28 -44 112 -134 0
-34 79 120 -134 0
39 -59 -83 134 0
-28 70 -89 134 0
-15 59 89 134 0
3 -57 -90 134 0
22 -59 96 134 0
-31 -48 -97 134 0
33 71 98 134 0
6 41 100 134 0
-10 -80 102 134 0
16 -74 -116 134 0
-33 73 120 134 0
-28 48 -83 -135 0
-21 78 85 -135 0
-32 49 -93 -135 0
18 -78 94 -135 0
-13 43 -98 -135 0
16 -76 -105 -135 0
-23 -48 -108 -135 0
-24 -52 111 -135 0
-11 49 -112 -135 0
33 58 114 -135 0
32 77 -83 135 0
36 43 84 135 0
19 45 -91 135 0
8 -73 -95 135 0
2 -44 96 135 0
34 -57 117 135 0
-9 63 -82 -136 0
38 41 -83 -136 0
-23 -80 -86 -136 0
-25 62 -87 -136 0
-22 -48 90 -136 0
-13 -69 91 -136 0
28 70 -94 -136 0
-34 -53 -99 -136 0
-4 -77 -102 -136 0
2 -79 105 -136 0
3 -60 106 -136 0
-26 48 -111 -136 0
-20 -45 111 -136 0
31 -76 -85 136 0
-10 59 86 136 0
26 59 86 136 0
-18 66 91 136 0
33 44 -99 136 0
-37 53 -99 136 0
-25 -58 103 136 0
27 -59 113 136 0
-16 -66 -82 -137 0
17 65 -86 -137 0
19 47 -87 -137 0
-15 -41 -105 -137 0
10 71 -111 -137 0
-26 75 -112 -137 0
-19 -65 112 -137 0
-11 -42 113 -137 0
39 -44 -117 -137 0
-1 -69 -81 137 0
38 43 81 137 0
37 -52 -82 137 0
25 71 83 137 0
12 60 87 137 0
-17 -56 -90 137 0
-21 -57 -94 137 0
-28 -47 96 137 0
28 57 98 137 0
14 -46 110 137 0
-15 54 -116 137 0
23 -73 118 137 0
-36 79 -83 -138 0
32 77 87 -138 0
35 56 -90 -138 0
-19 55 90 -138 0
1 -66 91 -138 0
16 64 -98 -138 0
11 45 -101 -138 0
-20 -71 -111 -138 0
30 60 -119 -138 0
38 49 83 138 0
2 60 84 138 0
37 -54 -93 138 0
26 -66 96 138 0
-35 -65 100 138 0
-19 -52 101 138 0
-24 77 104 138 0
12 -44 -105 138 0
16 -69 -111 138 0
-5 -56 115 138 0
6 71 -91 -139 0
-13 -59 95 -139 0
28 55 -97 -139 0
-34 -72 -102 -139 0
-33 69 -103 -139 0
-13 -76 103 -139 0
-17 45 -107 -139 0
16 -73 -110 -139 0
-20 -61 -99 139 0
-28 77 -99 139 0
40 -58 -100 139 0
11 43 103 139 0
11 72 -105 139 0
22 43 -108 139 0
-18 66 95 -140 0
13 -72 95 -140 0
20 49 -98 -140 0
40 66 -105 -140 0
-6 -41 116 -140 0
-29 53 -85 140 0
22 -55 86 140 0
31 -76 92 140 0
-29 69 -95 140 0
-18 41 97 140 0
-39 -50 -106 140 0
-24 67 -107 140 0
-15 -41 107 140 0
39 77 -120 140 0
23 -44 85 -141 0
1 61 -87 -141 0
-9 -45 -92 -141 0
-24 -47 -94 -141 0
-18 56 -95 -141 0
19 71 99 -141 0
-28 -78 109 -141 0
-1 68 110 -141 0
37 61 -119 -141 0
-26 44 -81 141 0
-3 -55 -85 141 0
27 -77 90 141 0
-17 46 93 141 0
-24 -49 96 141 0
3 79 102 141 0
14 -54 -105 141 0
-22 50 107 141 0
26 64 110 141 0
31 -45 -117 141 0
-3 68 -93 -142 0
25 49 94 -142 0
5 62 -95 -142 0
22 74 97 -142 0
-9 -78 100 -142 0
9 43 -105 -142 0
39 -49 107 -142 0
9 -69 117 -142 0
-3 79 -118 -142 0
8 42 120 -142 0
-39 78 -84 142 0
21 64 -85 142 0
-29 -72 86 142 0
-40 -59 87 142 0
31 51 88 142 0
23 67 -89 142 0
-1 -75 -90 142 0
23 -71 90 142 0
27 -68 91 142 0
-36 69 98 142 0
31 -68 -103 142 0
33 -60 -108 142 0
35 71 118 142 0
34 -43 -89 -143 0
30 68 -90 -143 0
-14 -45 -92 -143 0
-39 66 -92 -143 0
-20 53 -93 -143 0
32 57 -100 -143 0
-35 75 102 -143 0
21 -57 110 -143 0
-30 -76 110 -143 0
-16 54 -113 -143 0
39 -59 -84 143 0
39 74 87 143 0
21 77 89 143 0
31 -45 -93 143 0
-15 48 93 143 0
11 -64 93 143 0
-17 59 -112 143 0
8 -61 -115 143 0
27 73 81 -144 0
-20 54 83 -144 0
-25 -56 -84 -144 0
-24 -78 85 -144 0
-15 -58 89 -144 0
-20 48 -103 -144 0
-37 54 103 -144 0
13 76 105 -144 0
-27 79 -113 -144 0
-26 -57 119 -144 0
-35 68 -89 144 0
3 80 -91 144 0
-21 -62 -93 144 0
-32 -67 94 144 0
38 56 -101 144 0
15 -48 -103 144 0
-20 72 -105 144 0
-24 71 -111 144 0
31 -47 -116 144 0
26 -56 118 144 0
-31 -80 120 144 0
-32 -48 -83 -145 0
-31 -56 91 -145 0
24 76 -92 -145 0
1 75 95 -145 0
16 42 -97 -145 0
-21 -73 99 -145 0
-15 58 102 -145 0
24 61 81 145 0
19 49 83 145 0
-18 74 -86 145 0
31 57 -89 145 0
-24 -62 -98 145 0
-18 73 -101 145 0
32 45 -117 145 0
15 72 -82 -146 0
-34 -63 -85 -146 0
-39 78 -98 -146 0
5 77 -103 -146 0
-17 -55 106 -146 0
17 -74 -113 -146 0
37 -60 115 -146 0
23 -72 -81 146 0
37 57 91 146 0
25 -77 95 146 0
38 53 -104 146 0
-21 66 -106 146 0
20 -71 -108 146 0
40 78 -111 146 0
-4 47 114 146 0
27 41 -88 -147 0
12 70 -88 -147 0
9 75 -94 -147 0
8 -48 -102 -147 0
17 -60 -107 -147 0
6 57 -108 -147 0
-37 -69 110 -147 0
-10 55 -114 -147 0
-27 -75 -114 -147 0
-38 -64 120 -147 0
34 80 -81 147 0
-23 -69 -88 147 0
-26 46 89 147 0
-22 -60 92 147 0
-20 50 93 147 0
29 -65 93 147 0
-25 -59 99 147 0
-36 -49 -108 147 0
10 73 82 -148 0
30 -69 -90 -148 0
-16 50 -91 -148 0
-22 -53 92 -148 0
-28 -66 -101 -148 0
-27 69 112 -148 0
16 50 118 -148 0
-21 45 -85 148 0
5 -78 -86 148 0
-20 -62 -90 148 0
18 68 -93 148 0
-24 49 105 148 0
-34 -70 115 148 0
-17 -65 -116 148 0
-15 -63 93 -149 0
-35 45 -101 -149 0
9 -59 104 -149 0
-30 57 105 -149 0
8 42 107 -149 0
31 -57 -117 -149 0
25 -60 -119 -149 0
13 -43 81 149 0
33 54 -89 149 0
-40 73 93 149 0
26 -71 -97 149 0
-9 -54 -102 149 0
-8 -54 -107 149 0
-12 49 -108 149 0
3 46 110 149 0
23 59 117 149 0
-32 -63 -118 149 0
-26 60 84 -150 0
-6 43 -95 -150 0
29 -41 96 -150 0
17 45 -106 -150 0
30 54 106 -150 0
-27 -76 112 -150 0
34 51 -113 -150 0
39 -77 -116 -150 0
-26 -60 91 150 0
38 80 -92 150 0
34 45 101 150 0
-4 -54 102 150 0
23 -67 108 150 0
25 -76 109 150 0
-24 45 110 150 0
24 51 110 150 0
13 -60 -118 150 0
-7 54 120 150 0
-7 -63 -87 -151 0
36 -41 99 -151 0
-22 -42 -112 -151 0
26 -59 89 151 0
33 -78 95 151 0
-6 73 98 151 0
-28 77 102 151 0
-37 69 106 151 0
33 -56 108 151 0
17 -45 -109 151 0
35 -80 109 151 0
-18 -63 -111 151 0
-7 66 -112 151 0
35 61 -81 -152 0
9 -71 84 -152 0
4 60 86 -152 0
-20 65 98 -152 0
-30 -58 99 -152 0
11 -50 103 -152 0
-29 -42 -106 -152 0
40 -45 -110 -152 0
27 -58 115 -152 0
-10 66 -117 -152 0
-23 65 -120 -152 0
-3 55 82 152 0
35 -60 87 152 0
40 -44 -91 152 0
20 -68 -92 152 0
4 -42 -94 152 0
-38 60 97 152 0
-2 -59 -99 152 0
36 61 -105 152 0
34 -50 110 152 0
18 -70 83 -153 0
-28 59 84 -153 0
-14 -52 99 -153 0
33 -50 -106 -153 0
7 -52 107 -153 0
-1 79 -84 153 0
-18 -78 103 153 0
-31 48 -117 153 0
-12 -42 82 -154 0
12 46 -92 -154 0
4 79 92 -154 0
-12 43 94 -154 0
-10 -73 94 -154 0
19 74 -95 -154 0
-26 64 -103 -154 0
-25 79 -107 -154 0
25 -58 -108 -154 0
29 -52 -109 -154 0
33 67 -110 -154 0
-40 -41 111 -154 0
22 71 113 -154 0
7 58 88 154 0
40 54 93 154 0
-12 41 -95 154 0
25 51 95 154 0
34 -48 -96 154 0
-36 60 -97 154 0
10 75 -103 154 0
27 80 114 154 0
40 -59 119 154 0
-18 76 -82 -155 0
-27 -77 84 -155 0
9 -60 -87 -155 0
36 -60 96 -155 0
-3 61 115 -155 0
-22 67 87 155 0
-21 -50 99 155 0
-14 57 106 155 0
33 71 -115 155 0
33 48 -118 155 0
27 65 81 -156 0
-6 -78 86 -156 0
-4 65 88 -156 0
-2 63 97 -156 0
39 -79 -101 -156 0
-14 -48 102 -156 0
20 60 108 -156 0
3 69 118 -156 0
26 -52 119 -156 0
-26 -58 -81 156 0
32 71 -83 156 0
-14 42 -84 156 0
27 -41 -85 156 0
-4 -62 85 156 0
13 70 -101 156 0
4 78 114 156 0
-18 57 116 156 0
-37 -80 84 -157 0
-19 -44 88 -157 0
-14 -71 -91 -157 0
-3 -58 -95 -157 0
-2 -74 104 -157 0
-7 -76 -105 -157 0
-33 -51 109 -157 0
-7 69 -116 -157 0
-17 59 118 -157 0
-4 44 -89 157 0
23 69 -98 157 0
9 42 -99 157 0
-12 -58 105 157 0
-37 72 -108 157 0
30 46 -109 157 0
-4 59 -116 157 0
9 -63 117 157 0
-26 42 -87 -158 0
-2 -76 -91 -158 0
-19 64 93 -158 0
36 -58 -94 -158 0
-34 -42 -97 -158 0
6 -50 -99 -158 0
22 61 100 -158 0
-21 -70 -101 -158 0
-18 -63 -105 -158 0
-1 -61 -107 -158 0
10 -63 -110 -158 0
38 -53 111 -158 0
-7 56 -114 -158 0
38 71 114 -158 0
31 -80 -82 158 0
-4 -68 83 158 0
12 -62 88 158 0
-26 -75 95 158 0
-12 51 105 158 0
20 -51 107 158 0
-38 46 -115 158 0
39 -65 -117 158 0
7 -80 119 158 0
11 58 -85 -159 0
-36 52 86 -159 0
-27 -50 87 -159 0
-23 -60 89 -159 0
10 -76 90 -159 0
27 75 92 -159 0
-37 70 -95 -159 0
-7 59 96 -159 0
-33 48 105 -159 0
-1 60 -108 -159 0
-24 -63 109 -159 0
-1 72 -111 -159 0
12 50 111 -159 0
2 77 -87 159 0
3 -75 89 159 0
7 48 -104 159 0
-33 -78 107 159 0
-13 -48 -115 159 0
-11 -76 119 159 0
12 -69 -81 -160 0
-12 -64 82 -160 0
37 44 92 -160 0
7 -65 95 -160 0
-16 77 -111 -160 0
-9 61 113 -160 0
36 -56 -86 160 0
7 44 -98 160 0
-33 -44 109 160 0
-38 75 -116 160 0
5 43 118 160 0
-36 42 119 160 0
-33 65 -120 160 0
39 -74 120 160 0
